0 2635 2713 2437 1600 2845 6002 1743 594 2182
2635 0 314 2636 666 1096 4645 693 2889 287
2713 314 0 2730 706 791 4588 922 2991 217
2437 2636 2730 0 2824 3457 6083 2120 2040 2844
1600 666 706 2824 0 1247 4746 716 2223 584
2845 1096 791 3457 1247 0 5126 1653 3545 708
6002 4645 4588 6083 4746 5126 0 4267 6553 4826
1743 693 922 2120 716 1653 4267 0 2296 923
594 2889 2991 2040 2223 3545 6553 2296 0 2869
2182 287 217 2844 584 708 4826 923 2869 0
